17	4	3
9	16	12	12	17	44	31	
0	0	0	0	0	1	10	8	3	7	3	3	2	3	4
8	0	6	0	0	7	4	6	1	10	6	1	7
9	2	4	8	0	4	5	6	9	6	8	3	5	9	14
2	0	5	0	0	6	4	4	6	6	5	3	6	8	11
5	7	0	0	0	1	8	2	6	2	6	2	10	15
200	4	9	0	0	7	3	6	4	5	2	2	12	17
50	0	6	0	1	7	1	5	2	1	5	2	14	17
150	0	3	5	2	8	5	10	3	4	5	1	17
25	4	0	0	9	1	9	9	5	5	4	2	13	17
75	0	10	0	0	9	5	1	1	1	3	1	17
150	2	0	9	10	6	7	5	1	1	9	1	17
175	0	0	6	1	2	7	10	7	8	1	1	17
8	4	8	9	6	2	6	5	1	9	9	1	17
8	0	5	2	0	5	9	8	3	4	2	1	16
7	6	8	5	0	7	2	7	8	2	8	2	16	17
5	0	1	5	2	10	8	4	5	8	4	1	17
0	0	0	0	0	3	10	1	3	7	9	0
